1
1000
249
498 1
495 1
495 1
493 1
487 1
485 1
484 1
484 1
483 1
479 1
476 1
472 1
469 1
464 1
464 1
463 1
460 1
456 1
453 1
449 1
449 1
448 1
445 1
442 1
440 1
437 1
433 1
432 1
430 1
430 1
428 1
427 1
426 1
425 1
424 1
423 1
423 1
423 1
422 1
419 1
417 1
415 1
415 1
414 1
413 1
410 1
407 1
406 1
403 1
402 1
397 1
397 1
393 1
391 1
391 1
387 1
384 1
384 1
383 1
382 1
381 1
380 1
379 1
379 1
379 1
378 1
378 1
378 1
376 1
376 1
375 1
375 1
375 1
374 1
372 1
372 1
367 1
366 1
365 1
363 1
361 1
361 1
360 1
358 1
358 1
358 1
356 1
356 1
355 1
355 1
354 1
352 1
352 1
351 1
350 1
350 1
350 1
349 1
347 1
345 1
344 1
343 1
342 1
339 1
339 1
339 1
335 1
332 1
332 1
331 1
330 1
329 1
329 1
328 1
327 1
327 1
326 1
326 1
325 1
324 1
321 1
318 1
314 1
314 1
314 1
311 1
311 1
310 1
309 1
309 1
308 1
308 1
308 1
306 1
305 1
305 1
304 1
303 1
303 1
302 1
302 1
301 1
300 1
299 1
299 1
297 1
297 1
295 1
294 1
293 1
293 1
293 1
291 1
290 1
290 1
289 1
288 1
287 1
287 1
285 1
285 1
284 1
284 1
283 1
283 1
282 1
282 1
281 1
281 1
280 1
280 1
280 1
279 1
279 1
279 1
278 1
276 1
276 1
275 1
275 1
275 1
275 1
274 1
274 1
273 1
273 1
272 1
272 1
271 1
270 1
269 1
269 1
268 1
268 1
267 1
267 1
266 1
266 1
266 1
266 1
264 1
264 1
264 1
264 1
263 1
263 1
263 1
262 1
262 1
261 1
260 1
260 1
260 1
260 1
260 1
260 1
260 1
260 1
259 1
259 1
259 1
259 1
258 1
257 1
257 1
257 1
257 1
257 1
256 1
256 1
256 1
256 1
256 1
255 1
255 1
254 1
254 1
254 1
253 1
252 1
252 1
252 1
251 1
251 1
251 1
251 1
251 1
250 1
250 1
